************************************************************************
file with basedata            : mm37_.bas
initial value random generator: 1329454639
************************************************************************
projects                      :  1
jobs (incl. supersource/sink ):  12
horizon                       :  83
RESOURCES
  - renewable                 :  2   R
  - nonrenewable              :  2   N
  - doubly constrained        :  0   D
************************************************************************
PROJECT INFORMATION:
pronr.  #jobs rel.date duedate tardcost  MPM-Time
    1     10      0       16        8       16
************************************************************************
PRECEDENCE RELATIONS:
jobnr.    #modes  #successors   successors
   0        1          3           1   2   3
   1        3          1           9
   2        3          3           4   6   7
   3        3          2           4   7
   4        3          3           5   8  10
   5        3          1           9
   6        3          1           9
   7        3          1           8
   8        3          1          11
   9        3          1          11
  10        3          1          11
  11        1          0        
************************************************************************
REQUESTS/DURATIONS:
jobnr. mode duration  R 1  R 2  R 3  R 4  E(W 1)  E(W 2)  E(W 3)
------------------------------------------------------------------------
  0      1     0       0    0    0    0     0       0       0
  1      1     1       6   10    7    6    16       7       6
  2      1     3       7    2    6   10    27      18      30
  3      1     2       6   10    8    8    32      16      16
  4      1     4       8    9    9    3    68      36      12
  5      1     3       4    8    6    8    36      18      24
  6      1     7       7    5    7    2    84      49      14
  7      1     7       9    3    9    7    84      63      49
  8      1     6       2    8    5    4    60      30      24
  9      1     1       7    6    5    6    13       5       6
 10      1     3       9   10    3    7    57       9      21
 11      1     0       0    0    0    0     0       0       0
************************************************************************
RESOURCEAVAILABILITIES:
  R 1  R 2  R 3
   24   43   45
************************************************************************
RESOURCE LIMITS:
jobnr.  l(R 1)  u(R 1)  l(R 2)  u(R 2)  l(R 3)  u(R 3)
------------------------------------------------------------------------
  0        0       0       0       0       0       0
  1        8      16       4       7       3       6
  2        5       9       3       6       5      10
  3        8      16       4       8       4       8
  4        9      17       5       9       2       3
  5        6      12       3       6       4       8
  6        7      12       4       7       1       2
  7        7      12       5       9       4       7
  8        5      10       3       5       2       4
  9        7      13       3       5       3       6
 10       10      19       2       3       4       7
 11        0       0       0       0       0       0
************************************************************************
SCENARIOS:
------------------------------------------------------------------------
RESOURCE k = 1
s = 1: (0, 17, 34, 38, 60, 27, 75, 120, 47, 13, 55, 0)
s = 2: (0, 12, 23, 35, 79, 48, 70, 130, 48, 8, 63, 0)
s = 3: (0, 12, 18, 28, 61, 38, 78, 88, 64, 10, 47, 0)
s = 4: (0, 13, 28, 41, 60, 63, 82, 82, 51, 9, 83, 0)
s = 5: (0, 15, 33, 40, 46, 29, 105, 59, 75, 15, 81, 0)
s = 6: (0, 19, 41, 20, 91, 39, 78, 136, 63, 13, 47, 0)
s = 7: (0, 16, 22, 30, 93, 33, 95, 67, 68, 15, 45, 0)
s = 8: (0, 17, 32, 36, 74, 25, 63, 69, 63, 20, 86, 0)
s = 9: (0, 14, 21, 19, 88, 48, 72, 46, 45, 15, 67, 0)
s = 10: (0, 17, 25, 23, 57, 38, 70, 86, 49, 24, 55, 0)
s = 11: (0, 24, 26, 41, 67, 27, 84, 69, 68, 17, 71, 0)
s = 12: (0, 11, 28, 26, 71, 40, 66, 95, 57, 12, 66, 0)
s = 13: (0, 11, 28, 36, 71, 21, 105, 76, 49, 10, 58, 0)
s = 14: (0, 13, 34, 43, 77, 37, 65, 94, 36, 11, 39, 0)
s = 15: (0, 19, 18, 18, 102, 52, 62, 79, 59, 8, 43, 0)
s = 16: (0, 12, 31, 31, 57, 48, 66, 65, 68, 10, 56, 0)
s = 17: (0, 21, 18, 44, 38, 32, 84, 78, 70, 13, 95, 0)
s = 18: (0, 15, 26, 23, 49, 48, 56, 136, 68, 13, 51, 0)
s = 19: (0, 19, 21, 39, 43, 32, 95, 98, 73, 12, 62, 0)
s = 20: (0, 14, 20, 25, 55, 50, 119, 65, 73, 15, 34, 0)
s = 21: (0, 23, 48, 38, 53, 47, 89, 132, 35, 8, 40, 0)
s = 22: (0, 14, 29, 43, 86, 29, 103, 77, 56, 9, 44, 0)
s = 23: (0, 19, 21, 25, 93, 46, 109, 89, 52, 8, 41, 0)
s = 24: (0, 24, 30, 43, 79, 38, 87, 78, 59, 17, 54, 0)
s = 25: (0, 26, 28, 47, 55, 26, 54, 65, 80, 28, 64, 0)
s = 26: (0, 25, 24, 25, 76, 53, 57, 76, 77, 11, 53, 0)
s = 27: (0, 17, 46, 28, 51, 28, 83, 81, 41, 8, 42, 0)
s = 28: (0, 13, 21, 32, 55, 54, 98, 87, 73, 11, 42, 0)
s = 29: (0, 11, 23, 45, 52, 23, 125, 69, 43, 19, 67, 0)
s = 30: (0, 20, 16, 32, 75, 31, 53, 89, 57, 11, 46, 0)
s = 31: (0, 11, 17, 36, 59, 27, 86, 63, 74, 13, 45, 0)
s = 32: (0, 24, 27, 25, 93, 27, 48, 50, 86, 15, 46, 0)
s = 33: (0, 14, 25, 59, 56, 36, 127, 52, 55, 21, 46, 0)
s = 34: (0, 14, 40, 18, 50, 29, 103, 120, 118, 16, 75, 0)
s = 35: (0, 17, 42, 29, 58, 36, 75, 68, 91, 11, 57, 0)
s = 36: (0, 22, 34, 21, 52, 21, 55, 122, 78, 15, 50, 0)
s = 37: (0, 23, 34, 31, 48, 22, 62, 61, 117, 12, 54, 0)
s = 38: (0, 13, 28, 44, 51, 34, 68, 69, 91, 16, 85, 0)
s = 39: (0, 12, 21, 43, 47, 29, 75, 121, 54, 14, 56, 0)
s = 40: (0, 23, 24, 34, 116, 28, 76, 62, 46, 11, 54, 0)
s = 41: (0, 19, 17, 36, 42, 30, 116, 79, 70, 12, 50, 0)
s = 42: (0, 18, 23, 28, 58, 41, 93, 117, 44, 19, 60, 0)
s = 43: (0, 20, 25, 37, 82, 26, 95, 70, 68, 15, 70, 0)
s = 44: (0, 11, 23, 48, 79, 34, 60, 89, 68, 9, 47, 0)
s = 45: (0, 19, 41, 32, 69, 19, 51, 52, 41, 13, 38, 0)
s = 46: (0, 18, 30, 26, 40, 23, 96, 70, 47, 16, 41, 0)
s = 47: (0, 23, 35, 49, 85, 52, 117, 89, 52, 11, 43, 0)
s = 48: (0, 16, 44, 34, 72, 48, 80, 67, 55, 10, 60, 0)
s = 49: (0, 10, 35, 36, 85, 30, 89, 76, 34, 12, 78, 0)
s = 50: (0, 14, 24, 37, 51, 40, 88, 65, 53, 12, 47, 0)
s = 51: (0, 22, 34, 38, 59, 26, 63, 128, 40, 11, 70, 0)
s = 52: (0, 17, 19, 27, 66, 27, 46, 89, 46, 8, 59, 0)
s = 53: (0, 13, 41, 49, 104, 36, 99, 93, 41, 14, 42, 0)
s = 54: (0, 15, 27, 30, 87, 64, 79, 68, 48, 18, 79, 0)
s = 55: (0, 10, 17, 24, 84, 25, 90, 79, 48, 18, 45, 0)
s = 56: (0, 13, 29, 41, 75, 33, 93, 72, 85, 24, 36, 0)
s = 57: (0, 20, 33, 20, 45, 20, 50, 67, 72, 10, 53, 0)
s = 58: (0, 23, 32, 20, 58, 39, 63, 98, 71, 23, 70, 0)
s = 59: (0, 17, 31, 63, 54, 50, 79, 75, 40, 13, 52, 0)
s = 60: (0, 15, 18, 32, 93, 49, 74, 70, 60, 26, 39, 0)
s = 61: (0, 13, 30, 21, 66, 45, 76, 49, 82, 16, 40, 0)
s = 62: (0, 18, 27, 42, 82, 31, 96, 54, 53, 15, 73, 0)
s = 63: (0, 12, 25, 35, 62, 29, 83, 72, 84, 18, 79, 0)
s = 64: (0, 14, 25, 26, 59, 20, 106, 67, 47, 16, 73, 0)
s = 65: (0, 11, 37, 20, 46, 39, 53, 113, 38, 15, 49, 0)
s = 66: (0, 23, 30, 26, 82, 25, 115, 48, 65, 18, 46, 0)
s = 67: (0, 18, 31, 35, 51, 42, 46, 141, 33, 10, 39, 0)
s = 68: (0, 12, 26, 30, 48, 61, 87, 55, 89, 13, 45, 0)
s = 69: (0, 18, 31, 26, 53, 33, 144, 83, 57, 13, 98, 0)
s = 70: (0, 18, 23, 30, 101, 43, 61, 49, 36, 12, 70, 0)
s = 71: (0, 24, 30, 34, 86, 33, 66, 66, 95, 17, 50, 0)
s = 72: (0, 14, 39, 33, 80, 28, 108, 108, 55, 20, 70, 0)
s = 73: (0, 24, 28, 43, 38, 51, 121, 59, 50, 9, 49, 0)
s = 74: (0, 20, 22, 23, 84, 23, 79, 115, 58, 10, 88, 0)
s = 75: (0, 22, 37, 35, 88, 28, 82, 101, 61, 15, 51, 0)
s = 76: (0, 19, 35, 30, 62, 27, 63, 63, 61, 11, 53, 0)
s = 77: (0, 25, 16, 34, 95, 29, 67, 102, 80, 9, 60, 0)
s = 78: (0, 20, 28, 28, 48, 27, 108, 102, 78, 18, 67, 0)
s = 79: (0, 20, 25, 23, 55, 30, 50, 88, 75, 16, 64, 0)
s = 80: (0, 19, 28, 36, 54, 31, 114, 90, 59, 9, 45, 0)
s = 81: (0, 9, 17, 26, 76, 32, 103, 90, 51, 11, 70, 0)
s = 82: (0, 22, 33, 29, 51, 35, 72, 91, 70, 15, 46, 0)
s = 83: (0, 16, 20, 40, 51, 24, 103, 82, 80, 11, 43, 0)
s = 84: (0, 26, 23, 24, 47, 54, 76, 95, 59, 9, 34, 0)
s = 85: (0, 21, 31, 40, 96, 29, 44, 123, 50, 20, 79, 0)
s = 86: (0, 15, 22, 24, 71, 32, 74, 100, 52, 15, 65, 0)
s = 87: (0, 10, 31, 32, 64, 29, 74, 84, 80, 9, 50, 0)
s = 88: (0, 16, 22, 27, 63, 21, 62, 57, 94, 9, 90, 0)
s = 89: (0, 19, 30, 28, 47, 33, 108, 100, 37, 16, 50, 0)
s = 90: (0, 9, 29, 48, 69, 32, 114, 49, 39, 7, 81, 0)
s = 91: (0, 20, 35, 29, 51, 53, 92, 133, 61, 17, 76, 0)
s = 92: (0, 19, 28, 24, 65, 41, 89, 112, 33, 18, 33, 0)
s = 93: (0, 16, 42, 34, 67, 43, 66, 105, 60, 9, 49, 0)
s = 94: (0, 10, 16, 26, 81, 44, 54, 119, 67, 12, 81, 0)
s = 95: (0, 9, 19, 20, 86, 46, 53, 66, 72, 12, 51, 0)
s = 96: (0, 12, 38, 27, 83, 41, 123, 111, 66, 14, 49, 0)
s = 97: (0, 21, 16, 42, 77, 44, 69, 100, 49, 20, 40, 0)
s = 98: (0, 14, 28, 24, 75, 40, 61, 55, 58, 10, 39, 0)
s = 99: (0, 17, 24, 31, 101, 30, 101, 122, 54, 9, 62, 0)
s = 100: (0, 14, 31, 20, 80, 45, 94, 92, 84, 11, 46, 0)
s = 101: (0, 25, 23, 21, 40, 36, 70, 128, 50, 9, 49, 0)
s = 102: (0, 10, 26, 29, 56, 58, 79, 156, 55, 19, 34, 0)
s = 103: (0, 18, 16, 35, 58, 43, 55, 76, 37, 12, 69, 0)
s = 104: (0, 12, 20, 29, 39, 43, 60, 96, 72, 14, 66, 0)
s = 105: (0, 18, 20, 54, 121, 33, 89, 77, 74, 13, 80, 0)
s = 106: (0, 11, 28, 24, 62, 34, 117, 78, 56, 21, 73, 0)
s = 107: (0, 13, 37, 32, 77, 39, 71, 86, 89, 15, 84, 0)
s = 108: (0, 9, 18, 18, 55, 21, 82, 83, 65, 13, 60, 0)
s = 109: (0, 26, 15, 39, 39, 20, 69, 96, 49, 10, 39, 0)
s = 110: (0, 14, 30, 34, 84, 28, 97, 68, 90, 11, 51, 0)
s = 111: (0, 17, 25, 26, 97, 34, 89, 117, 59, 16, 40, 0)
s = 112: (0, 24, 41, 24, 74, 29, 63, 59, 41, 14, 95, 0)
s = 113: (0, 11, 41, 62, 96, 61, 73, 57, 48, 13, 49, 0)
s = 114: (0, 20, 26, 46, 67, 47, 81, 80, 46, 14, 35, 0)
s = 115: (0, 10, 22, 41, 79, 37, 135, 111, 80, 13, 49, 0)
s = 116: (0, 21, 36, 36, 67, 66, 99, 50, 68, 12, 70, 0)
s = 117: (0, 17, 25, 30, 102, 38, 88, 50, 53, 9, 43, 0)
s = 118: (0, 22, 26, 44, 61, 34, 80, 63, 57, 13, 37, 0)
s = 119: (0, 17, 24, 37, 79, 28, 106, 119, 108, 11, 83, 0)
s = 120: (0, 13, 20, 48, 62, 54, 78, 89, 49, 21, 44, 0)
s = 121: (0, 13, 20, 37, 53, 21, 94, 100, 72, 22, 45, 0)
s = 122: (0, 16, 25, 22, 97, 47, 63, 120, 42, 15, 44, 0)
s = 123: (0, 9, 38, 34, 81, 37, 110, 51, 39, 12, 84, 0)
s = 124: (0, 24, 33, 22, 73, 45, 71, 70, 63, 9, 50, 0)
s = 125: (0, 25, 39, 23, 68, 41, 80, 85, 43, 10, 55, 0)
s = 126: (0, 19, 40, 47, 84, 34, 67, 98, 52, 9, 53, 0)
s = 127: (0, 10, 38, 46, 38, 46, 76, 91, 84, 7, 58, 0)
s = 128: (0, 16, 20, 46, 99, 26, 50, 52, 43, 12, 57, 0)
s = 129: (0, 11, 30, 38, 45, 23, 112, 84, 80, 12, 60, 0)
s = 130: (0, 17, 21, 29, 102, 31, 102, 47, 48, 14, 40, 0)
s = 131: (0, 19, 19, 39, 52, 31, 78, 81, 75, 13, 52, 0)
s = 132: (0, 15, 33, 20, 74, 32, 44, 82, 51, 11, 63, 0)
s = 133: (0, 16, 27, 24, 105, 38, 94, 77, 76, 15, 55, 0)
s = 134: (0, 12, 30, 36, 58, 52, 67, 68, 52, 12, 39, 0)
s = 135: (0, 18, 18, 39, 79, 36, 91, 97, 39, 13, 75, 0)
s = 136: (0, 11, 21, 18, 118, 31, 82, 46, 103, 13, 65, 0)
s = 137: (0, 16, 28, 36, 64, 28, 137, 73, 65, 13, 59, 0)
s = 138: (0, 10, 29, 40, 45, 47, 62, 95, 59, 16, 88, 0)
s = 139: (0, 19, 33, 39, 63, 40, 106, 66, 64, 10, 61, 0)
s = 140: (0, 22, 18, 17, 63, 41, 103, 89, 93, 12, 89, 0)
s = 141: (0, 13, 38, 28, 72, 34, 61, 108, 56, 12, 50, 0)
s = 142: (0, 15, 29, 23, 102, 43, 71, 81, 70, 18, 92, 0)
s = 143: (0, 11, 25, 28, 90, 20, 97, 59, 60, 17, 55, 0)
s = 144: (0, 17, 20, 26, 50, 27, 66, 77, 64, 10, 34, 0)
s = 145: (0, 17, 20, 32, 67, 53, 136, 109, 92, 10, 73, 0)
s = 146: (0, 18, 23, 27, 59, 36, 66, 125, 39, 12, 89, 0)
s = 147: (0, 16, 18, 24, 66, 34, 95, 95, 86, 10, 36, 0)
s = 148: (0, 15, 27, 24, 47, 43, 113, 114, 54, 12, 36, 0)
s = 149: (0, 20, 35, 25, 51, 23, 78, 85, 72, 12, 92, 0)
s = 150: (0, 17, 20, 45, 77, 64, 93, 127, 54, 11, 55, 0)
s = 151: (0, 18, 31, 23, 74, 33, 67, 61, 85, 10, 43, 0)
s = 152: (0, 15, 19, 30, 113, 35, 90, 88, 49, 14, 55, 0)
s = 153: (0, 20, 28, 42, 90, 25, 105, 115, 38, 21, 47, 0)
s = 154: (0, 16, 24, 26, 73, 30, 107, 109, 74, 9, 48, 0)
s = 155: (0, 23, 21, 32, 92, 27, 100, 64, 31, 15, 57, 0)
s = 156: (0, 11, 21, 30, 58, 43, 69, 102, 69, 17, 79, 0)
s = 157: (0, 20, 17, 34, 59, 28, 88, 106, 89, 15, 48, 0)
s = 158: (0, 26, 16, 43, 85, 38, 60, 63, 34, 16, 33, 0)
s = 159: (0, 19, 26, 27, 94, 24, 62, 83, 74, 11, 58, 0)
s = 160: (0, 26, 33, 26, 77, 50, 113, 69, 67, 13, 61, 0)
s = 161: (0, 22, 25, 26, 111, 26, 107, 109, 50, 8, 55, 0)
s = 162: (0, 12, 39, 51, 45, 29, 55, 134, 74, 14, 39, 0)
s = 163: (0, 20, 37, 37, 58, 35, 59, 111, 42, 10, 52, 0)
s = 164: (0, 13, 32, 34, 63, 47, 54, 59, 48, 9, 39, 0)
s = 165: (0, 20, 30, 28, 114, 45, 65, 73, 43, 13, 69, 0)
s = 166: (0, 10, 21, 42, 66, 37, 55, 70, 41, 9, 50, 0)
s = 167: (0, 15, 15, 37, 60, 35, 103, 83, 63, 18, 48, 0)
s = 168: (0, 17, 30, 54, 75, 29, 132, 75, 63, 13, 49, 0)
s = 169: (0, 16, 29, 34, 70, 40, 45, 109, 48, 18, 62, 0)
s = 170: (0, 12, 22, 21, 49, 29, 127, 70, 67, 17, 91, 0)
s = 171: (0, 17, 31, 47, 61, 63, 71, 94, 51, 16, 93, 0)
s = 172: (0, 10, 24, 42, 47, 32, 115, 101, 54, 12, 75, 0)
s = 173: (0, 17, 27, 25, 69, 23, 70, 135, 57, 13, 57, 0)
s = 174: (0, 12, 16, 28, 61, 46, 72, 105, 70, 15, 51, 0)
s = 175: (0, 10, 28, 19, 70, 61, 126, 70, 77, 15, 59, 0)
s = 176: (0, 16, 44, 31, 104, 48, 120, 108, 36, 8, 61, 0)
s = 177: (0, 15, 25, 46, 57, 29, 95, 82, 47, 14, 66, 0)
s = 178: (0, 15, 23, 39, 48, 36, 128, 106, 47, 14, 61, 0)
s = 179: (0, 22, 31, 25, 46, 46, 85, 63, 89, 11, 53, 0)
s = 180: (0, 12, 32, 27, 44, 45, 97, 68, 47, 17, 42, 0)
s = 181: (0, 10, 32, 43, 76, 29, 52, 69, 43, 12, 57, 0)
s = 182: (0, 19, 27, 32, 69, 45, 100, 130, 50, 10, 57, 0)
s = 183: (0, 20, 37, 44, 72, 37, 69, 115, 51, 13, 81, 0)
s = 184: (0, 13, 33, 53, 69, 44, 67, 81, 82, 13, 49, 0)
s = 185: (0, 21, 25, 41, 91, 48, 79, 49, 52, 21, 49, 0)
s = 186: (0, 17, 30, 44, 44, 40, 114, 118, 84, 11, 30, 0)
s = 187: (0, 19, 21, 20, 80, 43, 77, 72, 51, 10, 58, 0)
s = 188: (0, 10, 26, 36, 46, 37, 97, 61, 43, 16, 82, 0)
s = 189: (0, 13, 25, 25, 50, 28, 81, 66, 51, 14, 61, 0)
s = 190: (0, 10, 33, 44, 97, 30, 46, 90, 49, 15, 54, 0)
s = 191: (0, 20, 16, 34, 42, 23, 84, 90, 50, 17, 51, 0)
s = 192: (0, 17, 30, 27, 66, 27, 51, 81, 68, 15, 41, 0)
s = 193: (0, 22, 43, 23, 70, 30, 58, 98, 59, 21, 57, 0)
s = 194: (0, 13, 31, 36, 114, 39, 126, 107, 43, 11, 65, 0)
s = 195: (0, 20, 44, 26, 62, 37, 70, 137, 63, 17, 61, 0)
s = 196: (0, 12, 38, 21, 64, 29, 153, 91, 57, 10, 102, 0)
s = 197: (0, 16, 21, 35, 99, 37, 116, 94, 103, 12, 68, 0)
s = 198: (0, 15, 22, 36, 52, 41, 75, 97, 73, 9, 74, 0)
s = 199: (0, 16, 33, 33, 113, 36, 70, 89, 76, 10, 74, 0)
s = 200: (0, 12, 29, 25, 65, 29, 90, 121, 41, 12, 63, 0)
------------------------------------------------------------------------
RESOURCE k = 2
s = 1: (0, 8, 23, 19, 32, 14, 44, 90, 24, 5, 9, 0)
s = 2: (0, 5, 16, 18, 42, 24, 41, 98, 24, 3, 10, 0)
s = 3: (0, 6, 12, 14, 33, 19, 46, 66, 32, 4, 8, 0)
s = 4: (0, 6, 19, 21, 32, 32, 48, 62, 26, 4, 14, 0)
s = 5: (0, 7, 22, 20, 25, 15, 61, 44, 38, 6, 13, 0)
s = 6: (0, 9, 27, 10, 49, 20, 46, 102, 32, 5, 8, 0)
s = 7: (0, 7, 15, 15, 49, 17, 55, 50, 34, 6, 7, 0)
s = 8: (0, 8, 22, 18, 40, 13, 37, 52, 32, 8, 14, 0)
s = 9: (0, 6, 14, 10, 47, 24, 42, 34, 23, 6, 11, 0)
s = 10: (0, 8, 17, 12, 30, 19, 41, 65, 25, 10, 9, 0)
s = 11: (0, 11, 17, 21, 35, 14, 49, 52, 34, 7, 12, 0)
s = 12: (0, 5, 19, 13, 38, 20, 39, 71, 29, 5, 11, 0)
s = 13: (0, 5, 19, 18, 38, 11, 61, 57, 25, 4, 10, 0)
s = 14: (0, 6, 23, 22, 41, 19, 38, 70, 18, 5, 7, 0)
s = 15: (0, 8, 12, 9, 54, 26, 37, 59, 30, 4, 7, 0)
s = 16: (0, 6, 21, 16, 31, 24, 39, 49, 34, 4, 9, 0)
s = 17: (0, 9, 12, 22, 21, 16, 49, 59, 35, 5, 15, 0)
s = 18: (0, 7, 18, 12, 26, 24, 33, 102, 34, 5, 8, 0)
s = 19: (0, 9, 14, 20, 23, 16, 56, 73, 37, 5, 10, 0)
s = 20: (0, 6, 13, 13, 29, 25, 70, 49, 37, 6, 6, 0)
s = 21: (0, 10, 32, 19, 28, 24, 52, 99, 18, 3, 7, 0)
s = 22: (0, 6, 19, 22, 46, 15, 60, 58, 28, 4, 7, 0)
s = 23: (0, 8, 14, 13, 49, 23, 64, 67, 26, 4, 7, 0)
s = 24: (0, 11, 20, 22, 42, 19, 51, 59, 30, 7, 9, 0)
s = 25: (0, 12, 19, 24, 30, 13, 32, 49, 40, 11, 10, 0)
s = 26: (0, 11, 16, 13, 40, 27, 34, 57, 39, 4, 9, 0)
s = 27: (0, 8, 31, 14, 27, 14, 49, 61, 21, 3, 7, 0)
s = 28: (0, 6, 14, 16, 29, 27, 57, 66, 37, 5, 7, 0)
s = 29: (0, 5, 16, 23, 28, 12, 73, 52, 22, 8, 11, 0)
s = 30: (0, 9, 11, 16, 40, 16, 31, 67, 29, 5, 8, 0)
s = 31: (0, 5, 12, 18, 31, 14, 50, 48, 37, 5, 8, 0)
s = 32: (0, 11, 18, 13, 50, 14, 28, 37, 43, 6, 8, 0)
s = 33: (0, 7, 17, 30, 30, 18, 74, 39, 28, 8, 8, 0)
s = 34: (0, 7, 27, 9, 27, 15, 60, 90, 59, 6, 12, 0)
s = 35: (0, 8, 28, 15, 31, 18, 44, 51, 46, 4, 9, 0)
s = 36: (0, 10, 23, 11, 28, 11, 32, 92, 39, 6, 8, 0)
s = 37: (0, 10, 23, 16, 26, 11, 37, 46, 59, 5, 9, 0)
s = 38: (0, 6, 19, 22, 27, 17, 40, 52, 46, 6, 14, 0)
s = 39: (0, 6, 14, 22, 25, 15, 44, 91, 27, 6, 9, 0)
s = 40: (0, 10, 16, 17, 61, 14, 44, 47, 23, 4, 9, 0)
s = 41: (0, 8, 12, 18, 23, 15, 68, 60, 35, 5, 8, 0)
s = 42: (0, 8, 16, 14, 31, 21, 54, 88, 22, 8, 10, 0)
s = 43: (0, 9, 17, 19, 43, 13, 55, 52, 34, 6, 11, 0)
s = 44: (0, 5, 16, 24, 42, 17, 35, 67, 34, 4, 8, 0)
s = 45: (0, 8, 28, 16, 37, 10, 30, 39, 21, 5, 6, 0)
s = 46: (0, 8, 20, 13, 21, 12, 56, 53, 24, 6, 7, 0)
s = 47: (0, 10, 24, 25, 45, 26, 69, 67, 26, 5, 7, 0)
s = 48: (0, 7, 29, 17, 38, 24, 47, 51, 28, 4, 10, 0)
s = 49: (0, 5, 23, 18, 45, 15, 52, 57, 17, 5, 13, 0)
s = 50: (0, 6, 16, 19, 27, 20, 52, 49, 27, 5, 8, 0)
s = 51: (0, 10, 23, 19, 32, 13, 37, 96, 20, 5, 11, 0)
s = 52: (0, 8, 13, 14, 35, 14, 27, 67, 23, 3, 10, 0)
s = 53: (0, 6, 28, 25, 55, 18, 58, 70, 21, 6, 7, 0)
s = 54: (0, 7, 18, 15, 46, 32, 46, 51, 24, 7, 13, 0)
s = 55: (0, 5, 11, 12, 45, 13, 53, 60, 24, 7, 7, 0)
s = 56: (0, 6, 20, 21, 40, 17, 55, 54, 43, 10, 6, 0)
s = 57: (0, 9, 22, 10, 24, 10, 30, 51, 36, 4, 9, 0)
s = 58: (0, 10, 21, 10, 31, 20, 37, 74, 36, 9, 11, 0)
s = 59: (0, 8, 21, 32, 29, 25, 46, 56, 20, 5, 9, 0)
s = 60: (0, 7, 12, 16, 49, 25, 43, 53, 30, 10, 7, 0)
s = 61: (0, 6, 20, 11, 35, 23, 44, 37, 41, 6, 7, 0)
s = 62: (0, 8, 18, 21, 44, 16, 56, 41, 27, 6, 12, 0)
s = 63: (0, 6, 17, 18, 33, 15, 49, 54, 42, 7, 13, 0)
s = 64: (0, 6, 17, 13, 32, 10, 62, 50, 24, 7, 12, 0)
s = 65: (0, 5, 25, 10, 25, 20, 31, 85, 19, 6, 8, 0)
s = 66: (0, 10, 20, 13, 44, 13, 67, 36, 33, 7, 8, 0)
s = 67: (0, 8, 21, 18, 27, 21, 27, 106, 17, 4, 7, 0)
s = 68: (0, 5, 17, 15, 26, 31, 51, 41, 45, 5, 7, 0)
s = 69: (0, 8, 21, 13, 28, 17, 84, 63, 29, 5, 16, 0)
s = 70: (0, 8, 15, 15, 54, 22, 36, 37, 18, 5, 11, 0)
s = 71: (0, 11, 20, 17, 46, 17, 39, 50, 48, 7, 8, 0)
s = 72: (0, 6, 26, 17, 43, 14, 63, 81, 28, 8, 11, 0)
s = 73: (0, 11, 19, 22, 20, 26, 71, 44, 25, 4, 8, 0)
s = 74: (0, 9, 15, 12, 45, 12, 46, 87, 29, 4, 14, 0)
s = 75: (0, 10, 25, 18, 47, 14, 48, 76, 31, 6, 8, 0)
s = 76: (0, 9, 23, 15, 33, 14, 37, 47, 31, 5, 9, 0)
s = 77: (0, 11, 11, 17, 50, 15, 39, 77, 40, 4, 10, 0)
s = 78: (0, 9, 19, 14, 26, 14, 63, 76, 39, 7, 11, 0)
s = 79: (0, 9, 17, 12, 29, 15, 30, 66, 38, 6, 11, 0)
s = 80: (0, 8, 19, 18, 29, 16, 67, 67, 30, 4, 7, 0)
s = 81: (0, 4, 12, 13, 41, 16, 60, 68, 26, 4, 11, 0)
s = 82: (0, 10, 22, 15, 27, 18, 42, 68, 35, 6, 8, 0)
s = 83: (0, 7, 13, 20, 27, 12, 60, 62, 40, 5, 7, 0)
s = 84: (0, 12, 15, 12, 25, 27, 45, 72, 30, 4, 6, 0)
s = 85: (0, 9, 21, 20, 51, 15, 26, 92, 25, 8, 13, 0)
s = 86: (0, 7, 15, 12, 38, 16, 44, 75, 26, 6, 11, 0)
s = 87: (0, 5, 21, 16, 34, 15, 43, 63, 40, 4, 8, 0)
s = 88: (0, 7, 15, 14, 33, 11, 36, 43, 47, 4, 15, 0)
s = 89: (0, 9, 20, 14, 25, 17, 63, 75, 19, 6, 8, 0)
s = 90: (0, 4, 19, 24, 37, 16, 67, 37, 20, 3, 13, 0)
s = 91: (0, 9, 24, 15, 27, 27, 54, 100, 31, 7, 12, 0)
s = 92: (0, 9, 19, 12, 35, 21, 52, 84, 17, 7, 6, 0)
s = 93: (0, 7, 28, 17, 36, 22, 38, 79, 30, 4, 8, 0)
s = 94: (0, 5, 11, 13, 43, 22, 32, 89, 34, 5, 13, 0)
s = 95: (0, 4, 13, 10, 46, 23, 31, 50, 36, 5, 9, 0)
s = 96: (0, 6, 26, 14, 44, 21, 72, 84, 33, 6, 8, 0)
s = 97: (0, 10, 11, 21, 41, 22, 41, 75, 25, 8, 7, 0)
s = 98: (0, 7, 19, 12, 40, 20, 36, 41, 29, 4, 7, 0)
s = 99: (0, 8, 16, 16, 53, 15, 59, 92, 27, 4, 10, 0)
s = 100: (0, 7, 21, 10, 43, 23, 55, 69, 42, 5, 8, 0)
s = 101: (0, 11, 16, 11, 21, 18, 41, 96, 25, 4, 8, 0)
s = 102: (0, 5, 17, 15, 30, 29, 46, 117, 28, 8, 6, 0)
s = 103: (0, 8, 11, 18, 31, 22, 32, 57, 19, 5, 11, 0)
s = 104: (0, 6, 13, 15, 21, 22, 35, 72, 36, 6, 11, 0)
s = 105: (0, 8, 13, 27, 64, 17, 52, 58, 37, 5, 13, 0)
s = 106: (0, 5, 19, 12, 33, 17, 69, 59, 28, 8, 12, 0)
s = 107: (0, 6, 25, 16, 41, 20, 41, 65, 45, 6, 14, 0)
s = 108: (0, 4, 12, 9, 29, 11, 48, 63, 33, 5, 10, 0)
s = 109: (0, 12, 10, 20, 21, 10, 40, 72, 25, 4, 7, 0)
s = 110: (0, 6, 20, 17, 44, 14, 57, 51, 45, 5, 8, 0)
s = 111: (0, 8, 17, 13, 52, 17, 52, 88, 30, 7, 7, 0)
s = 112: (0, 11, 27, 12, 39, 15, 37, 44, 21, 6, 15, 0)
s = 113: (0, 5, 27, 31, 51, 31, 43, 43, 24, 5, 8, 0)
s = 114: (0, 9, 18, 23, 36, 24, 48, 60, 23, 6, 6, 0)
s = 115: (0, 5, 15, 21, 42, 19, 79, 83, 40, 5, 8, 0)
s = 116: (0, 9, 24, 18, 36, 33, 58, 38, 34, 5, 11, 0)
s = 117: (0, 8, 17, 15, 54, 19, 51, 38, 27, 4, 7, 0)
s = 118: (0, 10, 18, 22, 32, 17, 47, 47, 29, 5, 6, 0)
s = 119: (0, 8, 16, 19, 42, 14, 62, 89, 54, 5, 14, 0)
s = 120: (0, 6, 13, 24, 33, 27, 46, 67, 25, 8, 7, 0)
s = 121: (0, 6, 14, 19, 28, 11, 55, 75, 36, 9, 8, 0)
s = 122: (0, 7, 17, 11, 51, 24, 37, 90, 21, 6, 7, 0)
s = 123: (0, 4, 26, 17, 43, 19, 64, 38, 20, 5, 14, 0)
s = 124: (0, 11, 22, 11, 39, 23, 41, 53, 32, 4, 8, 0)
s = 125: (0, 11, 26, 12, 36, 21, 47, 64, 22, 4, 9, 0)
s = 126: (0, 9, 27, 24, 45, 17, 39, 74, 26, 4, 9, 0)
s = 127: (0, 4, 26, 23, 20, 23, 45, 69, 42, 3, 10, 0)
s = 128: (0, 7, 13, 23, 52, 13, 29, 39, 22, 5, 9, 0)
s = 129: (0, 5, 20, 19, 24, 12, 65, 63, 40, 5, 10, 0)
s = 130: (0, 8, 14, 15, 54, 16, 60, 35, 24, 6, 7, 0)
s = 131: (0, 8, 13, 20, 28, 16, 46, 61, 38, 5, 9, 0)
s = 132: (0, 7, 22, 10, 40, 16, 26, 62, 26, 4, 10, 0)
s = 133: (0, 7, 18, 12, 56, 19, 55, 58, 38, 6, 9, 0)
s = 134: (0, 5, 20, 18, 31, 26, 40, 51, 26, 5, 7, 0)
s = 135: (0, 8, 12, 20, 42, 18, 53, 73, 20, 5, 12, 0)
s = 136: (0, 5, 14, 9, 63, 16, 48, 34, 52, 5, 11, 0)
s = 137: (0, 7, 19, 18, 34, 14, 80, 55, 33, 5, 10, 0)
s = 138: (0, 4, 20, 20, 24, 24, 36, 71, 30, 6, 14, 0)
s = 139: (0, 8, 22, 20, 34, 20, 62, 50, 32, 4, 10, 0)
s = 140: (0, 10, 12, 9, 34, 21, 60, 67, 47, 5, 14, 0)
s = 141: (0, 6, 26, 14, 38, 17, 36, 81, 28, 5, 8, 0)
s = 142: (0, 7, 19, 12, 54, 22, 42, 61, 35, 7, 15, 0)
s = 143: (0, 5, 17, 14, 48, 10, 57, 44, 30, 7, 9, 0)
s = 144: (0, 8, 13, 13, 27, 14, 39, 58, 32, 4, 6, 0)
s = 145: (0, 8, 14, 16, 36, 27, 79, 82, 46, 4, 12, 0)
s = 146: (0, 8, 15, 14, 32, 18, 39, 94, 20, 5, 14, 0)
s = 147: (0, 7, 12, 12, 35, 17, 55, 71, 43, 4, 6, 0)
s = 148: (0, 7, 18, 12, 25, 22, 66, 86, 27, 5, 6, 0)
s = 149: (0, 9, 23, 13, 27, 12, 46, 64, 36, 5, 15, 0)
s = 150: (0, 8, 14, 23, 41, 32, 55, 95, 27, 4, 9, 0)
s = 151: (0, 8, 21, 12, 40, 17, 40, 46, 43, 4, 7, 0)
s = 152: (0, 7, 13, 15, 60, 18, 53, 66, 25, 6, 9, 0)
s = 153: (0, 9, 19, 21, 48, 13, 62, 87, 19, 8, 8, 0)
s = 154: (0, 7, 16, 13, 39, 15, 63, 82, 37, 4, 8, 0)
s = 155: (0, 10, 14, 16, 49, 14, 59, 48, 16, 6, 9, 0)
s = 156: (0, 5, 14, 15, 31, 22, 41, 77, 35, 7, 13, 0)
s = 157: (0, 9, 11, 17, 31, 14, 51, 80, 45, 6, 8, 0)
s = 158: (0, 12, 11, 22, 45, 19, 35, 47, 17, 7, 6, 0)
s = 159: (0, 9, 18, 14, 50, 12, 36, 62, 37, 4, 10, 0)
s = 160: (0, 12, 22, 13, 41, 25, 66, 52, 34, 5, 10, 0)
s = 161: (0, 10, 17, 13, 59, 13, 62, 82, 25, 3, 9, 0)
s = 162: (0, 5, 26, 26, 24, 15, 33, 101, 37, 6, 7, 0)
s = 163: (0, 9, 25, 19, 31, 18, 34, 83, 21, 4, 9, 0)
s = 164: (0, 6, 21, 17, 33, 24, 32, 44, 24, 4, 7, 0)
s = 165: (0, 9, 20, 14, 60, 23, 38, 55, 22, 5, 11, 0)
s = 166: (0, 5, 14, 21, 35, 19, 32, 52, 21, 4, 8, 0)
s = 167: (0, 7, 10, 19, 32, 18, 60, 62, 32, 7, 8, 0)
s = 168: (0, 8, 20, 27, 40, 15, 77, 56, 32, 5, 8, 0)
s = 169: (0, 7, 20, 17, 37, 20, 27, 82, 24, 7, 10, 0)
s = 170: (0, 5, 15, 11, 26, 15, 75, 52, 34, 7, 15, 0)
s = 171: (0, 8, 21, 24, 32, 32, 41, 70, 26, 6, 15, 0)
s = 172: (0, 5, 16, 21, 25, 16, 68, 76, 27, 5, 12, 0)
s = 173: (0, 8, 18, 13, 37, 12, 41, 101, 29, 5, 9, 0)
s = 174: (0, 6, 11, 14, 32, 23, 42, 79, 35, 6, 8, 0)
s = 175: (0, 5, 19, 10, 38, 31, 74, 52, 39, 6, 10, 0)
s = 176: (0, 7, 30, 16, 55, 24, 70, 81, 18, 4, 10, 0)
s = 177: (0, 7, 17, 23, 30, 15, 56, 61, 24, 6, 11, 0)
s = 178: (0, 7, 16, 20, 25, 18, 75, 79, 24, 6, 10, 0)
s = 179: (0, 10, 21, 13, 25, 23, 50, 47, 45, 5, 9, 0)
s = 180: (0, 6, 22, 14, 24, 23, 57, 51, 24, 7, 7, 0)
s = 181: (0, 5, 22, 22, 41, 15, 30, 52, 22, 5, 9, 0)
s = 182: (0, 9, 18, 16, 37, 23, 58, 97, 25, 4, 9, 0)
s = 183: (0, 9, 25, 22, 38, 19, 41, 87, 26, 5, 13, 0)
s = 184: (0, 6, 22, 27, 37, 22, 39, 61, 41, 5, 8, 0)
s = 185: (0, 9, 17, 21, 49, 24, 46, 37, 26, 8, 8, 0)
s = 186: (0, 8, 20, 22, 23, 20, 67, 89, 42, 4, 5, 0)
s = 187: (0, 8, 14, 10, 43, 22, 45, 54, 26, 4, 10, 0)
s = 188: (0, 5, 17, 18, 25, 19, 57, 46, 22, 7, 13, 0)
s = 189: (0, 6, 17, 13, 27, 14, 48, 49, 26, 6, 10, 0)
s = 190: (0, 5, 22, 22, 52, 15, 27, 68, 25, 6, 9, 0)
s = 191: (0, 9, 11, 17, 23, 12, 49, 68, 25, 7, 8, 0)
s = 192: (0, 8, 20, 14, 35, 14, 30, 61, 34, 6, 7, 0)
s = 193: (0, 10, 29, 12, 37, 15, 34, 73, 30, 8, 9, 0)
s = 194: (0, 6, 21, 18, 60, 20, 74, 80, 22, 4, 11, 0)
s = 195: (0, 9, 30, 13, 33, 19, 41, 103, 32, 7, 10, 0)
s = 196: (0, 6, 26, 11, 34, 15, 90, 69, 29, 4, 17, 0)
s = 197: (0, 7, 14, 18, 53, 19, 68, 71, 52, 5, 11, 0)
s = 198: (0, 7, 15, 18, 28, 21, 44, 73, 37, 4, 12, 0)
s = 199: (0, 7, 22, 17, 60, 18, 41, 67, 38, 4, 12, 0)
s = 200: (0, 6, 20, 13, 35, 15, 53, 91, 21, 5, 10, 0)
------------------------------------------------------------------------
RESOURCE k = 3
s = 1: (0, 7, 37, 19, 11, 18, 13, 70, 19, 6, 21, 0)
s = 2: (0, 5, 26, 18, 14, 32, 12, 76, 20, 4, 23, 0)
s = 3: (0, 5, 19, 14, 11, 26, 13, 52, 26, 5, 17, 0)
s = 4: (0, 5, 31, 21, 11, 42, 14, 48, 21, 5, 31, 0)
s = 5: (0, 6, 37, 20, 9, 19, 18, 35, 30, 7, 30, 0)
s = 6: (0, 8, 45, 10, 17, 26, 13, 80, 25, 6, 18, 0)
s = 7: (0, 6, 25, 15, 17, 22, 16, 39, 27, 7, 17, 0)
s = 8: (0, 7, 36, 18, 14, 17, 11, 41, 26, 9, 32, 0)
s = 9: (0, 5, 23, 10, 16, 32, 12, 27, 18, 7, 25, 0)
s = 10: (0, 7, 28, 12, 10, 26, 12, 51, 20, 11, 21, 0)
s = 11: (0, 9, 28, 21, 12, 18, 14, 40, 28, 8, 27, 0)
s = 12: (0, 4, 31, 13, 13, 27, 11, 56, 23, 6, 25, 0)
s = 13: (0, 4, 31, 18, 13, 14, 18, 44, 20, 5, 22, 0)
s = 14: (0, 5, 38, 22, 14, 25, 11, 55, 15, 6, 15, 0)
s = 15: (0, 7, 20, 9, 18, 35, 11, 46, 24, 4, 16, 0)
s = 16: (0, 5, 34, 16, 11, 32, 11, 38, 27, 5, 21, 0)
s = 17: (0, 8, 20, 22, 7, 21, 14, 46, 28, 6, 35, 0)
s = 18: (0, 6, 29, 12, 9, 32, 10, 79, 27, 6, 19, 0)
s = 19: (0, 7, 23, 20, 8, 21, 16, 57, 30, 6, 23, 0)
s = 20: (0, 6, 22, 13, 10, 34, 20, 38, 30, 7, 13, 0)
s = 21: (0, 9, 53, 19, 10, 31, 15, 77, 14, 4, 15, 0)
s = 22: (0, 6, 32, 22, 16, 19, 18, 45, 23, 5, 16, 0)
s = 23: (0, 7, 23, 13, 17, 31, 19, 52, 21, 4, 15, 0)
s = 24: (0, 9, 33, 22, 14, 26, 15, 46, 24, 8, 20, 0)
s = 25: (0, 10, 31, 24, 10, 18, 9, 38, 32, 13, 24, 0)
s = 26: (0, 10, 26, 13, 14, 36, 10, 44, 31, 5, 20, 0)
s = 27: (0, 7, 51, 14, 9, 19, 14, 47, 17, 4, 16, 0)
s = 28: (0, 5, 23, 16, 10, 36, 17, 51, 29, 5, 16, 0)
s = 29: (0, 5, 26, 23, 10, 15, 21, 41, 18, 9, 25, 0)
s = 30: (0, 8, 18, 16, 14, 21, 9, 52, 23, 5, 17, 0)
s = 31: (0, 4, 19, 18, 11, 18, 15, 37, 30, 6, 17, 0)
s = 32: (0, 9, 30, 13, 17, 18, 8, 29, 35, 7, 17, 0)
s = 33: (0, 6, 27, 30, 10, 24, 22, 31, 22, 10, 17, 0)
s = 34: (0, 6, 44, 9, 9, 19, 18, 70, 47, 8, 28, 0)
s = 35: (0, 7, 46, 15, 11, 24, 13, 40, 37, 5, 21, 0)
s = 36: (0, 9, 37, 11, 10, 14, 10, 71, 32, 7, 19, 0)
s = 37: (0, 9, 38, 16, 9, 15, 11, 36, 47, 6, 20, 0)
s = 38: (0, 5, 31, 22, 9, 23, 12, 41, 37, 8, 32, 0)
s = 39: (0, 5, 23, 22, 9, 19, 13, 71, 22, 7, 21, 0)
s = 40: (0, 9, 26, 17, 21, 19, 13, 37, 19, 5, 20, 0)
s = 41: (0, 7, 19, 18, 8, 20, 20, 46, 28, 6, 19, 0)
s = 42: (0, 7, 26, 14, 11, 28, 16, 68, 18, 9, 23, 0)
s = 43: (0, 8, 28, 19, 15, 17, 16, 41, 28, 7, 26, 0)
s = 44: (0, 4, 26, 24, 14, 23, 10, 52, 28, 4, 18, 0)
s = 45: (0, 7, 46, 16, 13, 13, 9, 31, 17, 6, 14, 0)
s = 46: (0, 7, 33, 13, 7, 16, 16, 41, 19, 8, 15, 0)
s = 47: (0, 9, 39, 25, 15, 35, 20, 52, 21, 5, 16, 0)
s = 48: (0, 6, 48, 17, 13, 32, 14, 39, 22, 5, 22, 0)
s = 49: (0, 4, 39, 18, 15, 20, 15, 44, 14, 6, 29, 0)
s = 50: (0, 5, 26, 19, 9, 27, 15, 38, 21, 6, 18, 0)
s = 51: (0, 9, 38, 19, 11, 18, 11, 75, 16, 5, 26, 0)
s = 52: (0, 7, 21, 14, 12, 18, 8, 52, 19, 4, 22, 0)
s = 53: (0, 5, 46, 25, 19, 24, 17, 55, 17, 7, 16, 0)
s = 54: (0, 6, 29, 15, 16, 43, 14, 40, 20, 9, 29, 0)
s = 55: (0, 4, 19, 12, 15, 17, 15, 46, 20, 8, 17, 0)
s = 56: (0, 5, 33, 21, 14, 22, 16, 42, 34, 12, 13, 0)
s = 57: (0, 8, 37, 10, 8, 13, 9, 39, 29, 5, 20, 0)
s = 58: (0, 9, 35, 10, 11, 26, 11, 58, 29, 11, 26, 0)
s = 59: (0, 7, 34, 32, 10, 34, 14, 44, 16, 6, 19, 0)
s = 60: (0, 6, 20, 16, 17, 33, 13, 41, 24, 12, 15, 0)
s = 61: (0, 5, 33, 11, 12, 30, 13, 29, 33, 8, 15, 0)
s = 62: (0, 7, 30, 21, 15, 21, 16, 32, 21, 7, 27, 0)
s = 63: (0, 5, 27, 18, 11, 20, 14, 42, 34, 9, 29, 0)
s = 64: (0, 5, 28, 13, 11, 13, 18, 39, 19, 8, 27, 0)
s = 65: (0, 5, 41, 10, 9, 26, 9, 66, 16, 7, 18, 0)
s = 66: (0, 9, 34, 13, 15, 17, 20, 28, 26, 9, 17, 0)
s = 67: (0, 7, 34, 18, 9, 28, 8, 83, 14, 5, 15, 0)
s = 68: (0, 5, 28, 15, 9, 41, 15, 32, 36, 6, 17, 0)
s = 69: (0, 7, 34, 13, 10, 22, 24, 49, 23, 6, 36, 0)
s = 70: (0, 7, 25, 15, 18, 29, 11, 29, 15, 6, 26, 0)
s = 71: (0, 9, 33, 17, 16, 22, 11, 39, 38, 8, 19, 0)
s = 72: (0, 6, 44, 17, 15, 19, 18, 63, 22, 9, 26, 0)
s = 73: (0, 9, 32, 22, 7, 34, 21, 35, 20, 4, 18, 0)
s = 74: (0, 8, 24, 12, 15, 16, 14, 67, 23, 5, 33, 0)
s = 75: (0, 8, 41, 18, 16, 19, 14, 59, 25, 7, 19, 0)
s = 76: (0, 8, 39, 15, 11, 18, 11, 37, 25, 5, 20, 0)
s = 77: (0, 10, 18, 17, 17, 19, 12, 60, 32, 5, 23, 0)
s = 78: (0, 8, 31, 14, 9, 18, 18, 59, 32, 9, 25, 0)
s = 79: (0, 8, 28, 12, 10, 20, 9, 51, 30, 8, 24, 0)
s = 80: (0, 7, 31, 18, 10, 21, 19, 52, 24, 5, 17, 0)
s = 81: (0, 4, 19, 13, 14, 21, 18, 53, 21, 5, 26, 0)
s = 82: (0, 9, 37, 15, 9, 24, 12, 53, 28, 7, 17, 0)
s = 83: (0, 6, 22, 20, 9, 16, 18, 48, 32, 6, 16, 0)
s = 84: (0, 10, 25, 12, 9, 36, 13, 56, 24, 5, 13, 0)
s = 85: (0, 8, 35, 20, 17, 20, 8, 72, 20, 9, 29, 0)
s = 86: (0, 6, 24, 12, 13, 21, 13, 59, 21, 7, 24, 0)
s = 87: (0, 4, 34, 16, 12, 20, 13, 49, 32, 4, 19, 0)
s = 88: (0, 6, 25, 14, 11, 14, 11, 33, 38, 4, 34, 0)
s = 89: (0, 8, 34, 14, 9, 22, 18, 58, 15, 8, 19, 0)
s = 90: (0, 4, 32, 24, 13, 22, 19, 29, 16, 4, 30, 0)
s = 91: (0, 8, 39, 15, 9, 35, 16, 78, 25, 8, 28, 0)
s = 92: (0, 7, 31, 12, 12, 28, 15, 66, 14, 9, 12, 0)
s = 93: (0, 6, 47, 17, 12, 29, 11, 62, 24, 4, 18, 0)
s = 94: (0, 4, 18, 13, 15, 30, 9, 70, 27, 6, 30, 0)
s = 95: (0, 4, 21, 10, 16, 31, 9, 39, 29, 6, 19, 0)
s = 96: (0, 5, 43, 14, 15, 28, 21, 65, 27, 7, 18, 0)
s = 97: (0, 8, 18, 21, 14, 30, 12, 59, 20, 9, 15, 0)
s = 98: (0, 6, 31, 12, 14, 27, 11, 32, 23, 5, 15, 0)
s = 99: (0, 7, 26, 16, 18, 20, 17, 71, 22, 5, 23, 0)
s = 100: (0, 6, 35, 10, 15, 30, 16, 54, 34, 5, 17, 0)
s = 101: (0, 10, 26, 11, 7, 24, 12, 75, 20, 4, 19, 0)
s = 102: (0, 4, 29, 15, 10, 39, 14, 91, 22, 9, 13, 0)
s = 103: (0, 7, 18, 18, 11, 29, 10, 44, 15, 6, 26, 0)
s = 104: (0, 5, 22, 15, 7, 29, 10, 56, 29, 7, 25, 0)
s = 105: (0, 7, 22, 27, 22, 22, 15, 45, 30, 6, 30, 0)
s = 106: (0, 5, 31, 12, 11, 23, 20, 46, 23, 10, 27, 0)
s = 107: (0, 5, 42, 16, 14, 26, 12, 50, 36, 7, 31, 0)
s = 108: (0, 4, 20, 9, 10, 14, 14, 49, 26, 6, 22, 0)
s = 109: (0, 10, 17, 20, 7, 13, 12, 56, 20, 5, 15, 0)
s = 110: (0, 6, 33, 17, 15, 19, 17, 40, 36, 5, 19, 0)
s = 111: (0, 7, 28, 13, 18, 23, 15, 69, 24, 8, 15, 0)
s = 112: (0, 9, 45, 12, 13, 19, 11, 35, 17, 7, 35, 0)
s = 113: (0, 4, 45, 31, 17, 41, 13, 34, 19, 6, 18, 0)
s = 114: (0, 8, 29, 23, 12, 31, 14, 47, 19, 7, 13, 0)
s = 115: (0, 4, 25, 21, 14, 25, 23, 65, 32, 6, 18, 0)
s = 116: (0, 8, 39, 18, 12, 44, 17, 29, 28, 6, 26, 0)
s = 117: (0, 7, 27, 15, 18, 26, 15, 30, 21, 4, 16, 0)
s = 118: (0, 9, 29, 22, 11, 23, 14, 37, 23, 6, 14, 0)
s = 119: (0, 7, 27, 19, 14, 19, 18, 69, 44, 5, 31, 0)
s = 120: (0, 5, 22, 24, 11, 36, 13, 52, 20, 10, 17, 0)
s = 121: (0, 5, 23, 19, 10, 14, 16, 59, 29, 10, 17, 0)
s = 122: (0, 6, 27, 11, 17, 32, 11, 70, 17, 7, 16, 0)
s = 123: (0, 4, 42, 17, 15, 25, 19, 30, 16, 6, 31, 0)
s = 124: (0, 9, 37, 11, 13, 30, 12, 41, 25, 4, 19, 0)
s = 125: (0, 10, 44, 12, 12, 28, 14, 50, 18, 5, 20, 0)
s = 126: (0, 8, 44, 24, 15, 23, 12, 58, 21, 4, 20, 0)
s = 127: (0, 4, 42, 23, 7, 31, 13, 53, 34, 4, 22, 0)
s = 128: (0, 6, 22, 23, 18, 18, 9, 30, 17, 6, 21, 0)
s = 129: (0, 4, 33, 19, 8, 16, 19, 49, 32, 6, 22, 0)
s = 130: (0, 7, 23, 15, 18, 21, 17, 28, 20, 7, 15, 0)
s = 131: (0, 7, 21, 20, 10, 21, 13, 48, 30, 6, 20, 0)
s = 132: (0, 6, 37, 10, 14, 21, 8, 48, 21, 5, 23, 0)
s = 133: (0, 6, 30, 12, 19, 26, 16, 45, 31, 7, 21, 0)
s = 134: (0, 5, 33, 18, 11, 35, 12, 40, 21, 6, 15, 0)
s = 135: (0, 7, 20, 20, 14, 24, 16, 57, 16, 6, 28, 0)
s = 136: (0, 5, 23, 9, 21, 21, 14, 27, 41, 6, 24, 0)
s = 137: (0, 6, 32, 18, 12, 19, 23, 43, 26, 6, 22, 0)
s = 138: (0, 4, 32, 20, 8, 32, 11, 55, 24, 8, 33, 0)
s = 139: (0, 7, 36, 20, 12, 27, 18, 39, 26, 5, 23, 0)
s = 140: (0, 9, 20, 9, 12, 27, 18, 52, 38, 6, 33, 0)
s = 141: (0, 5, 42, 14, 13, 23, 11, 63, 23, 6, 19, 0)
s = 142: (0, 6, 32, 12, 18, 29, 12, 47, 28, 8, 34, 0)
s = 143: (0, 5, 28, 14, 16, 13, 17, 35, 24, 8, 21, 0)
s = 144: (0, 7, 22, 13, 9, 18, 11, 45, 26, 5, 13, 0)
s = 145: (0, 7, 22, 16, 12, 35, 23, 64, 37, 5, 27, 0)
s = 146: (0, 7, 25, 14, 11, 24, 11, 73, 16, 6, 33, 0)
s = 147: (0, 6, 20, 12, 12, 23, 16, 56, 35, 5, 14, 0)
s = 148: (0, 6, 30, 12, 9, 29, 19, 67, 22, 6, 14, 0)
s = 149: (0, 8, 39, 13, 9, 15, 13, 50, 29, 6, 34, 0)
s = 150: (0, 7, 22, 23, 14, 43, 16, 74, 22, 5, 20, 0)
s = 151: (0, 7, 34, 12, 14, 22, 12, 36, 34, 5, 16, 0)
s = 152: (0, 6, 21, 15, 20, 24, 15, 51, 20, 7, 21, 0)
s = 153: (0, 8, 31, 21, 16, 17, 18, 67, 15, 10, 17, 0)
s = 154: (0, 6, 26, 13, 13, 20, 18, 64, 30, 4, 18, 0)
s = 155: (0, 9, 24, 16, 17, 18, 17, 38, 13, 7, 21, 0)
s = 156: (0, 5, 23, 15, 11, 29, 12, 60, 28, 8, 29, 0)
s = 157: (0, 8, 19, 17, 11, 19, 15, 62, 36, 7, 18, 0)
s = 158: (0, 10, 18, 22, 15, 26, 10, 37, 14, 8, 13, 0)
s = 159: (0, 8, 29, 14, 17, 16, 11, 48, 30, 5, 22, 0)
s = 160: (0, 10, 37, 13, 14, 34, 19, 41, 27, 6, 23, 0)
s = 161: (0, 8, 28, 13, 20, 17, 18, 64, 20, 4, 21, 0)
s = 162: (0, 5, 44, 26, 8, 20, 10, 79, 30, 7, 15, 0)
s = 163: (0, 8, 41, 19, 11, 24, 10, 65, 17, 5, 19, 0)
s = 164: (0, 5, 35, 17, 11, 32, 9, 35, 20, 4, 15, 0)
s = 165: (0, 8, 34, 14, 20, 30, 11, 43, 18, 6, 26, 0)
s = 166: (0, 4, 23, 21, 12, 25, 10, 41, 17, 4, 19, 0)
s = 167: (0, 6, 17, 19, 11, 24, 18, 48, 26, 9, 18, 0)
s = 168: (0, 7, 33, 27, 14, 19, 22, 44, 26, 6, 18, 0)
s = 169: (0, 6, 32, 17, 13, 27, 8, 64, 20, 9, 23, 0)
s = 170: (0, 5, 24, 11, 9, 20, 22, 41, 27, 8, 34, 0)
s = 171: (0, 7, 34, 24, 11, 42, 12, 55, 21, 8, 34, 0)
s = 172: (0, 4, 27, 21, 9, 21, 20, 59, 22, 6, 28, 0)
s = 173: (0, 7, 30, 13, 13, 16, 12, 79, 23, 6, 21, 0)
s = 174: (0, 5, 18, 14, 11, 31, 12, 61, 28, 7, 19, 0)
s = 175: (0, 4, 31, 10, 13, 41, 21, 41, 31, 7, 22, 0)
s = 176: (0, 6, 49, 16, 19, 32, 20, 63, 15, 4, 23, 0)
s = 177: (0, 6, 28, 23, 10, 19, 16, 48, 19, 7, 25, 0)
s = 178: (0, 6, 26, 20, 9, 24, 22, 62, 19, 7, 23, 0)
s = 179: (0, 9, 35, 13, 9, 31, 15, 37, 36, 5, 20, 0)
s = 180: (0, 5, 36, 14, 8, 30, 17, 40, 19, 8, 16, 0)
s = 181: (0, 4, 36, 22, 14, 20, 9, 40, 18, 6, 21, 0)
s = 182: (0, 7, 30, 16, 13, 30, 17, 76, 20, 5, 21, 0)
s = 183: (0, 8, 41, 22, 13, 25, 12, 68, 21, 6, 30, 0)
s = 184: (0, 5, 36, 27, 13, 29, 12, 47, 33, 6, 18, 0)
s = 185: (0, 8, 28, 21, 17, 32, 14, 29, 21, 10, 18, 0)
s = 186: (0, 7, 33, 22, 8, 27, 19, 69, 34, 5, 11, 0)
s = 187: (0, 7, 23, 10, 15, 29, 13, 42, 21, 5, 22, 0)
s = 188: (0, 4, 28, 18, 9, 25, 17, 36, 18, 8, 31, 0)
s = 189: (0, 5, 27, 13, 9, 19, 14, 38, 21, 7, 23, 0)
s = 190: (0, 4, 36, 22, 18, 20, 8, 53, 20, 7, 20, 0)
s = 191: (0, 8, 17, 17, 8, 15, 14, 53, 20, 8, 19, 0)
s = 192: (0, 7, 33, 14, 12, 18, 9, 48, 28, 7, 15, 0)
s = 193: (0, 9, 48, 12, 13, 20, 10, 57, 24, 10, 21, 0)
s = 194: (0, 5, 34, 18, 20, 26, 21, 63, 17, 5, 24, 0)
s = 195: (0, 8, 49, 13, 11, 25, 12, 80, 26, 8, 23, 0)
s = 196: (0, 5, 42, 11, 12, 19, 26, 54, 23, 5, 38, 0)
s = 197: (0, 6, 23, 18, 18, 25, 20, 55, 42, 6, 26, 0)
s = 198: (0, 6, 25, 18, 10, 28, 13, 57, 30, 5, 28, 0)
s = 199: (0, 6, 37, 17, 20, 24, 12, 52, 31, 5, 28, 0)
s = 200: (0, 5, 33, 13, 12, 20, 15, 71, 17, 6, 23, 0)
************************************************************************
ES/LS-VALUES:
jobnr.   ES(i)    LS(i)
------------------------------------------------------------------------
  0        0        0
  1        0       78
  2        0       52
  3        0       54
  4        5       63
  5       12       74
  6        5       67
  7        5       58
  8       18       71
  9       18       80
 10       12       77
 11       29       83
************************************************************************
BIG-M-VALUES:
M1 = 71, M2 = 364
************************************************************************
